362
2
50, 24, 78, 47, 16, 24, 29, 61, 65, 25, 10, 87, 22, 4, 40, 54, 23, 81, 52, 75, 7, 16, 30, 65, 23, 64, 19, 76, 26, 7, 94, 53, 77, 55, 71, 94
1, 38, 77, 4, 42, 16, 1, 29, 33, 24, 71, 41, 73, 85, 64, 52, 11, 39, 100, 15, 39, 70, 3, 6, 19, 26, 91, 67, 60, 95, 20, 100, 28, 83, 90, 61
1, 1, 1, 1, 2, 2, 2, 1, 1, 2, 1, 1, 2, 2, 1, 2, 2, 2, 1, 1, 1, 1, 1, 1, 2, 2, 2, 2, 1, 1, 2, 2, 1, 1, 2, 2